CMD:
./solvers/bin/cadical --plain --no-reduce -t 1600 ./data/cnfs//qspiflash_qflexpress_divfive-p029/qspiflash_qflexpress_divfive-p029.80.cnf

c --- [ banner ] -------------------------------------------------------------
c 
c CaDiCaL SAT Solver
c Copyright (c) 2016-2024
c A. Biere, M. Fleury, N. Froleyks, K. Fazekas, F. Pollitt, T. Faller
c JKU Linz, University of Freiburg, TU Wien
c 
c Version 2.1.3 5296d3d2a9bf48c154ab2acb5e44625776d821bf
c g++ (Gentoo 12.3.1_p20230526 p2) 12.3.1 20230526 -Wall -Wextra -O3 -DNDEBUG
c Sat Aug 9 07:26:21 PDT 2025 Linux cedar2.int.cedar.computecanada.ca 5.14.0-362.24.2.el9_3.x86_64 x86_64
c 
c --- [ limit ] --------------------------------------------------------------
c 
c setting time limit to 1600 seconds real time (due to '-t 1600')
c 
c --- [ parsing input ] ------------------------------------------------------
c 
c reading DIMACS file from './data/cnfs//qspiflash_qflexpress_divfive-p029/qspiflash_qflexpress_divfive-p029.80.cnf'
c opening file to read './data/cnfs//qspiflash_qflexpress_divfive-p029/qspiflash_qflexpress_divfive-p029.80.cnf'
c found 'p cnf 212927 620987' header
c parsed 620987 clauses in 0.10 seconds process time
c 
c --- [ options ] ------------------------------------------------------------
c 
c   --compact=false                (different from default 'true')
c   --decompose=false              (different from default 'true')
c   --deduplicate=false            (different from default 'true')
c   --elim=false                   (different from default 'true')
c   --probe=false                  (different from default 'true')
c   --reduce=false                 (different from default 'true')
c   --subsume=false                (different from default 'true')
c   --ternary=false                (different from default 'true')
c   --transred=false               (different from default 'true')
c   --vivify=false                 (different from default 'true')
c 
c --- [ solving ] ------------------------------------------------------------
c 
c time measured in process time since initialization
c 
c  seconds  reductions  redundant  irredundant
c         MB    restarts       trail       variables
c          level   conflicts       glue          remaining
c 
c *  0.10 98  0 0   0    0    0  0% 0 605044 202832 95%
c {  0.15 102  0 0   0    0    0  0% 0 605044 202832 95%
c i  0.18 102 14 0   0   30   22 10% 3 605044 202737 95%
c i  0.18 102 14 0   0   31   22 10% 3 605044 202440 95%
c i  0.18 102 14 0   0   32   22 11% 2 605044 202345 95%
c i  0.26 103 35 0   0  180  157 13% 16 605044 202344 95%
c i  0.29 103 28 0   0  318  276 11% 10 605044 202340 95%
c i  0.33 103 30 0   5  504  380 11% 12 605044 202336 95%
c }  0.40 104 71 0  20 1000  818 13% 9 605044 202336 95%
c [  0.40 104  0 0  20 1000  818  0% 0 605044 202336 95%
c O  0.42 104 520 0  20 1005  823 34% 3 605044 202336 95%
c i  0.43 104 119 0  20 1105  917 12% 3 605044 202335 95%
c i  0.49 104 671 0  20 1493 1271 57% 4 605044 202331 95%
c i  0.55 104 829 0  20 1938 1684 68% 4 605044 202327 95%
c i  0.55 104 842 0  20 2032 1770 69% 4 605044 202323 95%
c i  0.58 104 758 0  21 2178 1898 62% 4 605044 202319 95%
c i  0.59 104 719 0  21 2243 1945 60% 4 605044 202315 95%
c i  0.60 104 695 0  21 2285 1983 58% 4 605044 202314 95%
c i  0.65 104 579 0  21 2549 2205 50% 4 605044 202310 95%
c ]  0.70 104 468 0  21 3002 2626 45% 4 605044 202310 95%
c 
c  seconds   reductions  redundant  irredundant
c          MB    restarts       trail       variables
c           level   conflicts       glue          remaining
c 
c {  0.70 104 71 0  21 3002 2626 13% 9 605044 202310 95%
c F  0.70 104 71 0  21 3006 2630 13% 9 605044 202310 95%
c i  0.70 104 71 0  21 3009 2632 13% 9 605044 202309 95%
c i  0.72 104 69 0  21 3184 2792 14% 8 605044 202305 95%
c i  0.72 104 69 0  21 3185 2792 14% 8 605044 202301 95%
c i  0.72 104 69 0  21 3186 2792 14% 8 605044 202297 95%
c i  0.73 104 72 0  21 3231 2823 14% 8 605044 202293 95%
c i  0.73 104 72 0  21 3247 2832 14% 8 605044 202289 95%
c i  0.73 104 72 0  21 3258 2842 14% 8 605044 202288 95%
c i  0.73 104 72 0  21 3317 2884 15% 8 605044 202248 95%
c i  0.75 104 76 0  21 3565 3104 16% 7 605044 202244 95%
c i  0.82 104 95 0  30 4522 3964 17% 6 605044 202240 95%
c i  0.83 104 97 0  30 4656 4085 18% 6 605044 202239 95%
c i  0.85 104 96 0  32 4779 4199 18% 6 605044 202235 95%
c i  0.96 105 86 0  33 5817 5103 18% 6 605044 202234 95%
c i  0.97 105 84 0  42 5974 5246 17% 6 605044 202233 95%
c i  0.97 105 84 0  42 5978 5249 17% 6 605044 202003 95%
c #  0.98 105 83 0  42 6007 5276 17% 6 605044 201939 95%
c i  0.99 105 84 0  42 6030 5298 17% 6 605044 201935 95%
c i  1.00 105 86 0  43 6194 5435 18% 6 605044 201934 95%
c 
c  seconds   reductions  redundant  irredundant
c          MB    restarts       trail       variables
c           level   conflicts       glue          remaining
c 
c i  1.01 105 85 0  46 6285 5498 18% 6 605044 201806 95%
c }  1.10 105 84 0  59 7002 6112 18% 5 605044 201806 95%
c [  1.10 105 468 0  59 7002 6112 45% 4 605044 201806 95%
c i  1.17 105 382 0  60 7555 6608 39% 5 605044 201711 95%
... skipped 2 lines ...
c i  1.22 105 341 0  60 7955 6970 37% 5 605044 201708 95%
c i  1.34 105 279 0  60 8832 7756 32% 5 605044 201707 95%
c i  1.48 105 245 0  61 9992 8781 31% 6 605044 201703 95%
c I  1.48 105 245 0  61 10008 8794 31% 6 605044 201703 95%
c i  1.58 105 217 0  62 10704 9337 28% 6 605044 201531 95%
c i  1.71 106 206 0  63 11615 10071 27% 7 605044 201530 95%
c i  1.83 106 197 0  63 12239 10614 28% 7 605044 201327 95%
c i  1.83 106 197 0  63 12241 10615 28% 7 605044 201164 94%
c i  1.91 106 192 0  63 12602 10903 28% 7 605044 201124 94%
c i  2.02 106 188 0  63 12892 11134 28% 7 605044 201085 94%
c i  2.12 106 185 0  63 13104 11304 28% 7 605044 200966 94%
c i  2.49 106 164 0  64 14762 12736 28% 7 605044 200965 94%
c i  2.51 106 163 0  64 14842 12800 28% 7 605044 200964 94%
c ]  2.54 106 160 0  64 15003 12946 28% 7 605044 200964 94%
c 
c  seconds   reductions    redundant  irredundant
c          MB    restarts         trail       variables
c           level    conflicts        glue          remaining
c 
c {  2.54 106 84 0  64 15003 12946 18% 5 605044 200964 94%
c B  2.54 106 84 0  64 15011 12953 18% 5 605044 200964 94%
c i  2.65 106 79 0  74 15425 13307 18% 5 605044 200857 94%
c i  2.67 106 79 0  81 15505 13374 18% 5 605044 200839 94%
c i  2.68 106 78 0  81 15552 13411 18% 5 605044 200720 94%
c i  2.69 106 78 0  81 15559 13413 18% 5 605044 200177 94%
c i  2.71 106 77 0  81 15658 13473 18% 5 605044 199927 94%
c i  2.71 106 77 0  81 15659 13473 18% 5 605044 199923 94%
c i  2.84 107 72 0 133 16405 14133 17% 5 605044 199920 94%
c i  2.84 107 72 0 133 16414 14141 17% 5 605044 199915 94%
c i  2.85 107 72 0 133 16448 14173 17% 5 605044 199911 94%
c i  2.86 107 71 0 136 16531 14248 17% 5 605044 199906 94%
c i  2.87 107 70 0 145 16628 14336 17% 5 605044 199905 94%
c i  2.89 107 69 0 160 16800 14499 17% 5 605044 199862 94%
c i  2.89 107 69 0 161 16819 14513 17% 5 605044 199856 94%
c i  2.91 107 67 0 161 16983 14656 17% 5 605044 199851 94%
c i  2.92 107 67 0 161 17000 14657 17% 5 605044 199684 94%
c i  2.94 107 66 0 161 17172 14804 17% 5 605044 199682 94%
c i  2.94 107 66 0 161 17173 14804 17% 5 605044 199461 94%
c i  2.97 107 65 0 161 17282 14897 17% 5 605044 199455 94%
c 
c  seconds   reductions    redundant  irredundant
c          MB    restarts         trail       variables
c           level    conflicts        glue          remaining
c 
c i  2.97 107 65 0 161 17295 14908 17% 5 605044 199454 94%
c i  2.97 107 65 0 161 17309 14918 17% 5 605044 199450 94%
c }  2.97 107 65 0 161 17318 14921 17% 5 605044 193924 91%
c 0  2.97 107 65 0 161 17318 14921 17% 5 605044 193924 91%
c 
c --- [ result ] -------------------------------------------------------------
c 
s UNSATISFIABLE
c 
c --- [ run-time profiling ] -------------------------------------------------
c 
c process time taken by individual solving procedures
c (percentage relative to process time for solving)
c 
c         2.87  100.00% search
c         1.73   60.45% stable
c         1.09   37.91% unstable
c         0.10    3.43% parse
c         0.05    1.63% lucky
c         0.00    0.00% simplify
c   =================================
c         2.87   96.67% solve
c 
c last line shows process time for solving
c (percentage relative to total process time)
c 
c --- [ statistics ] ---------------------------------------------------------
c 
c chronological:              6547        37.80 %  of conflicts
c conflicts:                 17318      6035.63    per second
c decisions:                 40820     14226.49    per second
c fixed:                     19002         8.92 %  of all variables
c learned:                   16556        95.60 %  per conflict
c learned_lits:             416206       100.00 %  learned literals
c minimized:                     0         0.00 %  learned literals
c shrunken:                  72408        17.40 %  learned literals
c minishrunken:              80751        19.40 %  learned literals
c otfs:                        191         1.10 %  of conflict
c propagations:           47761896        16.65 M  per second
c rephased:                      5      3463.60    interval
c restarts:                    161       107.57    interval
c stabilizing:                   2        57.75 %  of conflicts
c subsumed:                   1567         0.25 %  of all clauses
c strengthened:                189         0.03 %  of all clauses
c 
c seconds are measured in process time for solving
c 
c --- [ resources ] ----------------------------------------------------------
c 
c total process time since initialization:         2.97    seconds
c total real time since initialization:            2.99    seconds
c maximum resident set size of process:          104.44    MB
c 
c --- [ shutting down ] ------------------------------------------------------
c 
c exit 20
